c uprop, v00.0, 
c reading from data/prog665.c.cnf
c done reading: 0.002972
p cnf 164 729
-71 -89 0
71 89 0
-66 89 0
66 -89 0
71 -83 0
-81 -83 0
-71 81 83 0
-71 -76 81 0
71 -76 -81 0
71 76 81 0
-71 76 -81 0
-72 83 0
-69 -72 0
69 72 -83 0
-68 69 -83 0
-68 -69 83 0
68 69 83 0
68 -69 -83 0
-67 72 0
-64 -67 0
64 67 -72 0
-62 64 -72 0
-62 -64 72 0
62 64 72 0
62 -64 -72 0
67 -87 0
-85 -87 0
-67 85 87 0
-67 85 -91 0
67 -85 -91 0
67 85 91 0
-67 -85 91 0
87 -92 0
-78 -92 0
78 -87 92 0
78 -87 -93 0
-78 87 -93 0
78 87 93 0
-78 -87 93 0
92 -94 0
-74 -94 0
74 -92 94 0
74 -92 -95 0
-74 92 -95 0
74 92 95 0
-74 -92 95 0
89 -96 0
-89 96 0
-81 -89 97 0
81 89 -97 0
81 -97 0
89 -97 0
81 -97 -98 0
89 -97 -98 0
-97 -98 0
-81 97 98 0
-89 97 98 0
81 89 -98 0
-69 -81 99 0
-69 -97 99 0
-81 -97 99 0
69 81 -99 0
69 97 -99 0
81 97 -99 0
69 -99 -100 0
81 -99 -100 0
97 -99 -100 0
-69 99 100 0
-81 99 100 0
-97 99 100 0
-69 -81 -97 100 0
69 81 97 -100 0
-64 -69 101 0
-64 -99 101 0
-69 -99 101 0
64 69 -101 0
64 99 -101 0
69 99 -101 0
64 -101 -102 0
69 -101 -102 0
99 -101 -102 0
-64 101 102 0
-69 101 102 0
-99 101 102 0
-64 -69 -99 102 0
64 69 99 -102 0
-64 -85 103 0
-85 -101 103 0
-64 -101 103 0
64 85 -103 0
85 101 -103 0
64 101 -103 0
-61 85 -103 0
-61 64 -103 0
-61 101 -103 0
61 -85 103 0
61 -64 103 0
61 -101 103 0
61 -64 -85 -101 0
-61 64 85 101 0
60 -78 -85 0
60 -78 -103 0
60 -85 -103 0
-60 78 85 0
-60 78 103 0
-60 85 103 0
-59 -60 78 0
-59 -60 85 0
-59 -60 103 0
59 60 -78 0
59 60 -85 0
59 60 -103 0
59 -78 -85 -103 0
-59 78 85 103 0
58 -74 -78 0
58 -60 -74 0
58 -60 -78 0
-58 74 78 0
-58 60 74 0
-58 60 78 0
-57 -58 74 0
-57 -58 78 0
-57 -58 60 0
57 58 -74 0
57 58 -78 0
57 58 -60 0
57 -60 -74 -78 0
-57 60 74 78 0
74 -88 0
58 -88 0
-58 -74 88 0
-58 -74 -80 0
58 74 -80 0
58 -74 80 0
-58 74 80 0
-63 98 0
63 -98 0
84 -89 -100 0
-84 89 100 0
-84 100 0
-84 89 0
-77 -84 100 0
-77 -84 89 0
-77 -84 0
77 84 -100 0
77 84 -89 0
-77 89 100 0
73 -81 -102 0
73 -84 -102 0
73 -81 -84 0
-73 81 102 0
-73 84 102 0
-73 81 84 0
-56 -73 102 0
-56 -73 81 0
-56 -73 84 0
56 73 -102 0
56 73 -81 0
56 73 -84 0
56 -81 -84 -102 0
-56 81 84 102 0
55 -61 -69 0
55 -61 -73 0
55 -69 -73 0
-55 61 69 0
-55 61 73 0
-55 69 73 0
-54 -55 61 0
-54 -55 69 0
-54 -55 73 0
54 55 -61 0
54 55 -69 0
54 55 -73 0
54 -61 -69 -73 0
-54 61 69 73 0
53 -59 -64 0
53 -55 -59 0
53 -55 -64 0
-53 59 64 0
-53 55 59 0
-53 55 64 0
-52 -53 59 0
-52 -53 64 0
-52 -53 55 0
52 53 -59 0
52 53 -64 0
52 53 -55 0
52 -55 -59 -64 0
-52 55 59 64 0
51 -57 -85 0
51 -53 -57 0
51 -53 -85 0
-51 57 85 0
-51 53 57 0
-51 53 85 0
-50 -51 57 0
-50 -51 85 0
-50 -51 53 0
50 51 -57 0
50 51 -85 0
50 51 -53 0
50 -53 -57 -85 0
-50 53 57 85 0
49 -78 -80 0
49 -51 -80 0
49 -51 -78 0
-49 78 80 0
-49 51 80 0
-49 51 78 0
-48 -49 80 0
-48 -49 78 0
-48 -49 51 0
48 49 -80 0
48 49 -78 0
48 49 -51 0
48 -51 -78 -80 0
-48 51 78 80 0
47 -74 -88 0
47 -49 -88 0
47 -49 -74 0
-47 74 88 0
-47 49 88 0
-47 49 74 0
-46 -47 88 0
-46 -47 74 0
-46 -47 49 0
46 47 -88 0
46 47 -74 0
46 47 -49 0
46 -49 -74 -88 0
-46 49 74 88 0
-45 54 0
45 -54 0
44 -52 -89 0
-44 52 89 0
-44 52 0
-44 89 0
-43 -44 52 0
-43 -44 89 0
-43 -44 0
43 44 -52 0
43 44 -89 0
-43 52 89 0
42 -50 -81 0
42 -44 -50 0
42 -44 -81 0
-42 50 81 0
-42 44 50 0
-42 44 81 0
-41 -42 50 0
-41 -42 81 0
-41 -42 44 0
41 42 -50 0
41 42 -81 0
41 42 -44 0
41 -44 -50 -81 0
-41 44 50 81 0
40 -48 -69 0
40 -42 -48 0
40 -42 -69 0
-40 48 69 0
-40 42 48 0
-40 42 69 0
-39 -40 48 0
-39 -40 69 0
-39 -40 42 0
39 40 -48 0
39 40 -69 0
39 40 -42 0
39 -42 -48 -69 0
-39 42 48 69 0
38 -46 -64 0
38 -40 -46 0
38 -40 -64 0
-38 46 64 0
-38 40 46 0
-38 40 64 0
-38 46 -104 0
-38 64 -104 0
-38 40 -104 0
38 -46 104 0
38 -64 104 0
38 -40 104 0
-40 -46 -64 104 0
40 46 64 -104 0
-47 -85 105 0
-38 -47 105 0
-38 -85 105 0
47 85 -105 0
38 47 -105 0
38 85 -105 0
47 -105 -106 0
85 -105 -106 0
38 -105 -106 0
-47 105 106 0
-85 105 106 0
-38 105 106 0
-38 -47 -85 106 0
38 47 85 -106 0
78 -107 0
105 -107 0
-78 -105 107 0
-78 -105 -108 0
78 105 -108 0
-78 105 108 0
78 -105 108 0
74 -109 0
107 -109 0
-74 -107 109 0
-74 -107 -110 0
74 107 -110 0
-74 107 110 0
74 -107 110 0
-96 -111 0
96 111 0
96 -112 0
-96 112 0
111 -113 0
-63 -113 0
63 -111 113 0
63 -111 -114 0
-63 111 -114 0
63 111 114 0
-63 -111 114 0
113 -115 0
-77 -115 0
77 -113 115 0
77 -113 -116 0
-77 113 -116 0
77 113 116 0
-77 -113 116 0
115 -117 0
-56 -117 0
56 -115 117 0
56 -115 -118 0
-56 115 -118 0
56 115 118 0
-56 -115 118 0
117 -119 0
-45 -119 0
45 -117 119 0
45 -117 -120 0
-45 117 -120 0
45 117 120 0
-45 -117 120 0
119 -121 0
-43 -121 0
43 -119 121 0
43 -119 -122 0
-43 119 -122 0
43 119 122 0
-43 -119 122 0
121 -123 0
-41 -123 0
41 -121 123 0
41 -121 -124 0
-41 121 -124 0
41 121 124 0
-41 -121 124 0
123 -125 0
-39 -125 0
39 -123 125 0
39 -123 -126 0
-39 123 -126 0
39 123 126 0
-39 -123 126 0
125 -127 0
-104 -127 0
104 -125 127 0
104 -125 -128 0
-104 125 -128 0
104 125 128 0
-104 -125 128 0
127 -129 0
-106 -129 0
106 -127 129 0
106 -127 -130 0
-106 127 -130 0
106 127 130 0
-106 -127 130 0
129 -131 0
-108 -131 0
108 -129 131 0
108 -129 -132 0
-108 129 -132 0
108 129 132 0
-108 -129 132 0
131 -133 0
-110 -133 0
110 -131 133 0
110 -131 -134 0
-110 131 -134 0
110 131 134 0
-110 -131 134 0
133 -135 0
-109 -135 0
109 -133 135 0
109 -133 -136 0
-109 133 -136 0
109 133 136 0
-109 -133 136 0
-137 -139 0
-139 -140 0
137 139 140 0
137 140 -142 0
-137 -140 -142 0
-137 140 142 0
137 -140 142 0
139 -143 0
-143 -144 0
-139 143 144 0
-139 144 -146 0
139 -144 -146 0
139 144 146 0
-139 -144 146 0
143 -147 0
-147 -148 0
-143 147 148 0
-143 148 -150 0
143 -148 -150 0
143 148 150 0
-143 -148 150 0
147 -151 0
-151 -152 0
-147 151 152 0
-147 152 -154 0
147 -152 -154 0
147 152 154 0
-147 -152 154 0
-90 151 0
-90 -155 0
90 -151 155 0
-82 -151 155 0
-82 151 -155 0
82 151 155 0
82 -151 -155 0
-70 90 0
-70 -157 0
70 -90 157 0
-65 -90 157 0
-65 90 -157 0
65 90 157 0
65 -90 -157 0
70 -86 0
-86 -159 0
-70 86 159 0
-70 -79 159 0
70 -79 -159 0
70 79 159 0
-70 79 -159 0
-75 148 0
-75 137 0
75 -137 -148 0
-137 -138 -148 0
137 -138 148 0
137 138 -148 0
-137 138 148 0
-140 141 -152 0
-75 141 -152 0
-75 -140 141 0
140 -141 152 0
75 -141 152 0
75 140 -141 0
-141 -145 152 0
140 -141 -145 0
75 -141 -145 0
141 145 -152 0
-140 141 145 0
-75 141 145 0
-75 -140 145 -152 0
75 140 -145 152 0
-144 149 -155 0
-141 149 -155 0
-141 -144 149 0
144 -149 155 0
141 -149 155 0
141 144 -149 0
-149 -153 155 0
144 -149 -153 0
141 -149 -153 0
149 153 -155 0
-144 149 153 0
-141 149 153 0
-141 -144 153 -155 0
141 144 -153 155 0
-148 156 -157 0
-149 156 -157 0
-148 -149 156 0
148 -156 157 0
149 -156 157 0
148 149 -156 0
-156 157 -158 0
148 -156 -158 0
149 -156 -158 0
156 -157 158 0
-148 156 158 0
-149 156 158 0
-148 -149 -157 158 0
148 149 157 -158 0
-152 -159 160 0
-156 -159 160 0
-152 -156 160 0
152 159 -160 0
156 159 -160 0
152 156 -160 0
159 -160 -161 0
152 -160 -161 0
156 -160 -161 0
-159 160 161 0
-152 160 161 0
-156 160 161 0
-152 -156 -159 161 0
152 156 159 -161 0
155 -162 0
160 -162 0
-155 -160 162 0
-155 -160 -163 0
155 160 -163 0
-155 160 163 0
155 -160 163 0
157 -164 0
162 -164 0
-157 -162 164 0
-37 -157 -162 0
-37 157 162 0
37 -157 162 0
37 157 -162 0
-36 159 0
-36 164 0
36 -159 -164 0
-35 -159 -164 0
-35 159 164 0
35 -159 164 0
35 159 -164 0
-34 -137 0
-34 -140 0
34 137 140 0
-33 137 140 0
-33 -137 -140 0
33 -137 140 0
33 137 -140 0
-32 34 0
-32 -144 0
32 -34 144 0
-31 -34 144 0
-31 34 -144 0
31 34 144 0
31 -34 -144 0
-30 32 0
-30 -138 0
30 -32 138 0
-29 -32 138 0
-29 32 -138 0
29 32 138 0
29 -32 -138 0
-28 30 0
-28 -145 0
28 -30 145 0
-27 -30 145 0
-27 30 -145 0
27 30 145 0
27 -30 -145 0
-26 28 0
-26 -153 0
26 -28 153 0
-25 -28 153 0
-25 28 -153 0
25 28 153 0
25 -28 -153 0
-24 26 0
-24 -158 0
24 -26 158 0
-23 -26 158 0
-23 26 -158 0
23 26 158 0
23 -26 -158 0
-22 24 0
-22 -161 0
22 -24 161 0
-21 -24 161 0
-21 24 -161 0
21 24 161 0
21 -24 -161 0
-20 22 0
-20 -163 0
20 -22 163 0
-19 -22 163 0
-19 22 -163 0
19 22 163 0
19 -22 -163 0
-18 20 0
-18 -37 0
18 -20 37 0
-17 -20 37 0
-17 20 -37 0
17 20 37 0
17 -20 -37 0
-16 18 0
-16 -35 0
16 -18 35 0
-15 -18 35 0
-15 18 -35 0
15 18 35 0
15 -18 -35 0
-14 16 0
-14 -36 0
14 -16 36 0
-13 -16 36 0
-13 16 -36 0
13 16 36 0
13 -16 -36 0
-12 96 0
-12 137 0
12 -96 -137 0
-96 -137 0
96 137 0
11 -63 -140 0
11 -12 -63 0
11 -12 -140 0
-11 63 140 0
-11 12 63 0
-11 12 140 0
11 -63 0
11 -140 0
11 -12 0
-12 -63 -140 0
10 -77 -144 0
10 -11 -77 0
10 -11 -144 0
-10 77 144 0
-10 11 77 0
-10 11 144 0
10 -77 0
10 -144 0
10 -11 0
-11 -77 -144 0
9 -56 -138 0
9 -10 -56 0
9 -10 -138 0
-9 56 138 0
-9 10 56 0
-9 10 138 0
9 -56 0
9 -138 0
9 -10 0
-10 -56 -138 0
8 -45 -145 0
8 -9 -45 0
8 -9 -145 0
-8 45 145 0
-8 9 45 0
-8 9 145 0
8 -45 0
8 -145 0
8 -9 0
-9 -45 -145 0
7 -43 -153 0
7 -8 -43 0
7 -8 -153 0
-7 43 153 0
-7 8 43 0
-7 8 153 0
7 -43 0
7 -153 0
7 -8 0
-8 -43 -153 0
6 -41 -158 0
6 -7 -41 0
6 -7 -158 0
-6 41 158 0
-6 7 41 0
-6 7 158 0
6 -41 0
6 -158 0
6 -7 0
-7 -41 -158 0
5 -39 -161 0
5 -6 -39 0
5 -6 -161 0
-5 39 161 0
-5 6 39 0
-5 6 161 0
5 -39 0
5 -161 0
5 -6 0
-6 -39 -161 0
4 -104 -163 0
4 -5 -104 0
4 -5 -163 0
-4 104 163 0
-4 5 104 0
-4 5 163 0
4 -104 0
4 -163 0
4 -5 0
-5 -104 -163 0
3 -37 -106 0
3 -4 -106 0
3 -4 -37 0
-3 37 106 0
-3 4 106 0
-3 4 37 0
3 -106 0
3 -37 0
3 -4 0
-4 -37 -106 0
2 -35 -108 0
2 -3 -108 0
2 -3 -35 0
-2 35 108 0
-2 3 108 0
-2 3 35 0
2 -108 0
2 -35 0
2 -3 0
-3 -35 -108 0
1 -36 -110 0
1 -2 -110 0
1 -2 -36 0
-1 36 110 0
-1 2 110 0
-1 2 36 0
1 -110 0
1 -36 0
1 -2 0
-2 -36 -110 0
-1 -109 0
1 -109 0
-1 109 0
